(set-info :smt-lib-version 2.6)
(set-logic QF_NRA)
(set-info :author |Thomas Sturm, CNRS France, http://science.thomas-sturm.de|)
(set-info :source |
Transmitted by: Thomas Sturm
Generated on: 20161105
Received on: 20161105
Generator: RedLog, http://www.redlog.eu/
Application: qualitative analysis of systems of ODE in physics, chemistry, and the life sciences
Publication: Algebraic Biology 2008, doi:10.1007/978-3-540-85101-1_15
Additional information:
All problems have the following form: a certain polynomial has a zero where all variables are positive.  Interval solutions for satisfiable problems is a valuable information.
|)
(set-info :series |MBO - Methylene Blue Oscillator System|)
(set-info :instance |E7E27|)
(set-info :category "industrial")
(set-info :status unsat)
(declare-const j2 Real)
(declare-const h3 Real)
(declare-const h2 Real)
(declare-const h1 Real)
(assert (and (> h1 0) (> h2 0) (> h3 0) (> j2 0) (= (+ h1 h2 (* 4 h3 j2) (* 4 h3
)) 0)))
(check-sat)
(exit)
